\ENCODING=ISO-8859-1
\Problem name: ilog.cplex

Minimize
 obj1: 105832 x1 + 105351 x2 + 100596 x3 + 100651 x4 + 104268 x5 + 107239 x6
       + 103486 x7 + 99059 x8 + 97970 x9 + 103947 x10 + 90092 x11 + 104488 x12
       + 103752 x13 + 97564 x14 + 108209 x15 + 100567 x16 + 109971 x17
       + 93070 x18 + 106565 x19 + 91386 x20 + 92263 x21 + 91566 x22
       + 100034 x23 + 108597 x24 + 104112 x25 + 98221 x26 + 101585 x27
       + 98040 x28 + 92954 x29 + 109442 x30 + 94288 x31 + 107135 x32
       + 96639 x33 + 102373 x34 + 101072 x35 + 105652 x36 + 104737 x37
       + 99058 x38 + 109960 x39 + 104591 x40 + 104541 x41 + 97482 x42
       + 108137 x43 + 90526 x44 + 92562 x45 + 92195 x46 + 109499 x47
       + 106093 x48 + 98886 x49 + 108302 x50 + 104403 x51 + 105227 x52
       + 94253 x53 + 105423 x54 + 102354 x55 + 101294 x56 + 97313 x57
       + 95248 x58 + 94786 x59 + 106834 x60 + 95982 x61 + 98161 x62
       + 104862 x63 + 99638 x64 + 109911 x65 + 95003 x66 + 107048 x67
       + 109397 x68 + 97924 x69 + 96613 x70 + 102491 x71 + 97218 x72
       + 108911 x73 + 99010 x74 + 98127 x75 + 106383 x76 + 98092 x77
       + 102418 x78 + 104712 x79 + 93547 x80 + 107149 x81 + 93881 x82
       + 105751 x83 + 97085 x84 + 106293 x85 + 96047 x86 + 96623 x87
       + 102417 x88 + 96491 x89 + 93150 x90 + 91230 x91 + 102952 x92
       + 90899 x93 + 99289 x94 + 102056 x95 + 109651 x96 + 95942 x97
       + 93853 x98 + 98833 x99 + 92248 x100 + 100800 x101 + 96858 x102
       + 106819 x103 + 98059 x104 + 97519 x105 + 106468 x106 + 94348 x107
       + 108736 x108 + 105729 x109 + 95338 x110 + 98871 x111 + 100139 x112
       + 95298 x113 + 103602 x114 + 108703 x115 + 94813 x116 + 92062 x117
       + 106871 x118 + 90152 x119 + 105096 x120 + 102512 x121 + 98799 x122
       + 104443 x123 + 93529 x124 + 104414 x125 + 103322 x126 + 94771 x127
       + 100694 x128 + 109047 x129 + 97963 x130 + 98817 x131 + 96896 x132
       + 91397 x133 + 97324 x134 + 97969 x135 + 99598 x136 + 90914 x137
       + 94133 x138 + 96109 x139 + 94650 x140 + 107317 x141 + 104173 x142
       + 108020 x143 + 106074 x144 + 93478 x145 + 90970 x146 + 90288 x147
       + 96526 x148 + 100540 x149 + 96278 x150 + 93207 x151 + 99064 x152
       + 95455 x153 + 105478 x154 + 90272 x155 + 102044 x156 + 99464 x157
       + 99341 x158 + 106676 x159 + 100055 x160 + 95501 x161 + 100131 x162
       + 91840 x163 + 90052 x164 + 108409 x165 + 94097 x166 + 95464 x167
       + 104773 x168 + 93347 x169 + 96158 x170 + 108357 x171 + 101124 x172
       + 100437 x173 + 90587 x174 + 108799 x175 + 91118 x176 + 107199 x177
       + 93418 x178 + 104403 x179 + 96847 x180 + 95322 x181 + 93183 x182
       + 95216 x183 + 100100 x184 + 91886 x185 + 95941 x186 + 100242 x187
       + 91882 x188 + 109420 x189 + 105614 x190 + 106616 x191 + 107480 x192
       + 104034 x193 + 91276 x194 + 98337 x195 + 98643 x196 + 106356 x197
       + 109298 x198 + 99760 x199 + 106035 x200 + 92333 x201 + 107876 x202
       + 107362 x203 + 107806 x204 + 99161 x205 + 103127 x206 + 108566 x207
       + 103131 x208 + 99528 x209 + 101198 x210 + 108797 x211 + 99447 x212
       + 91496 x213 + 91012 x214 + 98749 x215 + 93493 x216 + 98527 x217
       + 104180 x218 + 92213 x219 + 108241 x220 + 107291 x221 + 100166 x222
       + 101811 x223 + 93988 x224 + 104660 x225 + 94650 x226 + 93623 x227
       + 99702 x228 + 92211 x229 + 103340 x230 + 98168 x231 + 102622 x232
       + 98761 x233 + 95203 x234 + 107740 x235 + 108737 x236 + 99281 x237
       + 101482 x238 + 98210 x239 + 101876 x240 + 102015 x241 + 109817 x242
       + 97213 x243 + 105002 x244 + 104680 x245 + 106437 x246 + 99999 x247
       + 103677 x248 + 105370 x249 + 39993 x250 + 18381 x251 + 20977 x252
       + 20695 x253 + 21390 x254 + 19051 x255 + 18252 x256 + 19374 x257
       + 21639 x258 + 18323 x259 + 20275 x260 + 20187 x261 + 19383 x262
       + 21369 x263 + 19172 x264 + 19588 x265 + 19302 x266 + 18823 x267
       + 19180 x268 + 19609 x269 + 19157 x270 + 20338 x271 + 20554 x272
       + 18431 x273 + 20020 x274 + 18922 x275 + 19293 x276 + 19129 x277
       + 18461 x278 + 21394 x279 + 21083 x280 + 19707 x281 + 20588 x282
       + 21459 x283 + 19694 x284 + 20401 x285 + 19904 x286 + 21434 x287
       + 19337 x288 + 19439 x289 + 18378 x290 + 18576 x291 + 19137 x292
       + 18046 x293 + 18949 x294 + 18233 x295 + 21845 x296 + 19459 x297
       + 21867 x298 + 18716 x299 + 33079 x300
Subject To
 c1:   x15 + x17 + x21 + x24 - x26 - x27 - x29 + x44 + x48 - x50  = 1
 c2:   x65 + x67 + x71 + x74 - x76 - x77 - x79 + x94 + x98 - x100  = 0
 c3:   x115 + x117 + x121 + x124 - x126 - x127 - x129 + x144 + x148 - x150  = 0
 c4:   x165 + x167 + x171 + x174 - x176 - x177 - x179 + x194 + x198 - x200  = 0
 c5:   x215 + x217 + x221 + x224 - x226 - x227 - x229 + x244 + x248 - x250  = 0
 c6:   - x7 - x8 - x11 + x28 + x34 - x45 + x49  = 0
 c7:   - x57 - x58 - x61 + x78 + x84 - x95 + x99  = 0
 c8:   - x107 - x108 - x111 + x128 + x134 - x145 + x149  = 0
 c9:   - x157 - x158 - x161 + x178 + x184 - x195 + x199  = 0
 c10:  - x207 - x208 - x211 + x228 + x234 - x245 + x249  = 0
 c11:  - x1 + x10 - x15 + x16 - x20 + x23 - x32 + x33 - x34 - x35 - x40 + x43
       + x46  = 0
 c12:  - x51 + x60 - x65 + x66 - x70 + x73 - x82 + x83 - x84 - x85 - x90 + x93
       + x96  = 0
 c13:  - x101 + x110 - x115 + x116 - x120 + x123 - x132 + x133 - x134 - x135
       - x140 + x143 + x146  = 1
 c14:  - x151 + x160 - x165 + x166 - x170 + x173 - x182 + x183 - x184 - x185
       - x190 + x193 + x196  = 0
 c15:  - x201 + x210 - x215 + x216 - x220 + x223 - x232 + x233 - x234 - x235
       - x240 + x243 + x246  = 0
 c16:  x2 + x14 - x16 - x22 + x26 + x39 - x41 - x49  = 0
 c17:  x52 + x64 - x66 - x72 + x76 + x89 - x91 - x99  = 0
 c18:  x102 + x114 - x116 - x122 + x126 + x139 - x141 - x149  = 0
 c19:  x152 + x164 - x166 - x172 + x176 + x189 - x191 - x199  = 0
 c20:  x202 + x214 - x216 - x222 + x226 + x239 - x241 - x249  = 0
 c21:  x4 + x11 - x19 + x20 - x23 - x28 + x30 - x38 + x47  = 0
 c22:  x54 + x61 - x69 + x70 - x73 - x78 + x80 - x88 + x97  = 0
 c23:  x104 + x111 - x119 + x120 - x123 - x128 + x130 - x138 + x147  = 0
 c24:  x154 + x161 - x169 + x170 - x173 - x178 + x180 - x188 + x197  = -1
 c25:  x204 + x211 - x219 + x220 - x223 - x228 + x230 - x238 + x247  = 0
 c26:  - x2 + x3 + x6 + x12 - x13 + x18 + x29 + x32 - x37 + x41 - x44  = 0
 c27:  - x52 + x53 + x56 + x62 - x63 + x68 + x79 + x82 - x87 + x91 - x94  = 1
 c28:  - x102 + x103 + x106 + x112 - x113 + x118 + x129 + x132 - x137 + x141
       - x144  = -1
 c29:  - x152 + x153 + x156 + x162 - x163 + x168 + x179 + x182 - x187 + x191
       - x194  = 0
 c30:  - x202 + x203 + x206 + x212 - x213 + x218 + x229 + x232 - x237 + x241
       - x244  = 1
 c31:  - x3 + x7 + x13 - x21 + x25 - x31 - x36 + x40 - x42 - x43 - x47  = 0
 c32:  - x53 + x57 + x63 - x71 + x75 - x81 - x86 + x90 - x92 - x93 - x97  = -1
 c33:  - x103 + x107 + x113 - x121 + x125 - x131 - x136 + x140 - x142 - x143
       - x147  = 0
 c34:  - x153 + x157 + x163 - x171 + x175 - x181 - x186 + x190 - x192 - x193
       - x197  = 0
 c35:  - x203 + x207 + x213 - x221 + x225 - x231 - x236 + x240 - x242 - x243
       - x247  = 0
 c36:  x1 + x8 + x9 - x10 - x12 - x24 - x30 + x42 + x50  = 0
 c37:  x51 + x58 + x59 - x60 - x62 - x74 - x80 + x92 + x100  = 0
 c38:  x101 + x108 + x109 - x110 - x112 - x124 - x130 + x142 + x150  = 0
 c39:  x151 + x158 + x159 - x160 - x162 - x174 - x180 + x192 + x200  = 0
 c40:  x201 + x208 + x209 - x210 - x212 - x224 - x230 + x242 + x250  = 0
 c41:  - x4 - x5 - x18 + x19 + x22 - x25 + x35 + x36 + x37 - x39 - x46 - x48
        = 0
 c42:  - x54 - x55 - x68 + x69 + x72 - x75 + x85 + x86 + x87 - x89 - x96 - x98
        = 0
 c43:  - x104 - x105 - x118 + x119 + x122 - x125 + x135 + x136 + x137 - x139
       - x146 - x148  = 0
 c44:  - x154 - x155 - x168 + x169 + x172 - x175 + x185 + x186 + x187 - x189
       - x196 - x198  = 0
 c45:  - x204 - x205 - x218 + x219 + x222 - x225 + x235 + x236 + x237 - x239
       - x246 - x248  = -1
 c46:  x5 - x6 - x9 - x14 - x17 + x27 + x31 - x33 + x38 + x45  = -1
 c47:  x55 - x56 - x59 - x64 - x67 + x77 + x81 - x83 + x88 + x95  = 0
 c48:  x105 - x106 - x109 - x114 - x117 + x127 + x131 - x133 + x138 + x145  = 0
 c49:  x155 - x156 - x159 - x164 - x167 + x177 + x181 - x183 + x188 + x195  = 1
 c50:  x205 - x206 - x209 - x214 - x217 + x227 + x231 - x233 + x238 + x245  = 0
 c51:  4 x1 + 4 x51 + 4 x101 + 4 x151 + 4 x201 - 9 x251 <= 0
 c52:  4 x2 + 4 x52 + 4 x102 + 4 x152 + 4 x202 - 10 x252 <= 0
 c53:  4 x3 + 4 x53 + 4 x103 + 4 x153 + 4 x203 - 10 x253 <= 0
 c54:  4 x4 + 4 x54 + 4 x104 + 4 x154 + 4 x204 - 9 x254 <= 0
 c55:  4 x5 + 4 x55 + 4 x105 + 4 x155 + 4 x205 - 9 x255 <= 0
 c56:  4 x6 + 4 x56 + 4 x106 + 4 x156 + 4 x206 - 10 x256 <= 0
 c57:  4 x7 + 4 x57 + 4 x107 + 4 x157 + 4 x207 - 11 x257 <= 0
 c58:  4 x8 + 4 x58 + 4 x108 + 4 x158 + 4 x208 - 10 x258 <= 0
 c59:  4 x9 + 4 x59 + 4 x109 + 4 x159 + 4 x209 - 10 x259 <= 0
 c60:  4 x10 + 4 x60 + 4 x110 + 4 x160 + 4 x210 - 10 x260 <= 0
 c61:  4 x11 + 4 x61 + 4 x111 + 4 x161 + 4 x211 - 10 x261 <= 0
 c62:  4 x12 + 4 x62 + 4 x112 + 4 x162 + 4 x212 - 9 x262 <= 0
 c63:  4 x13 + 4 x63 + 4 x113 + 4 x163 + 4 x213 - 11 x263 <= 0
 c64:  4 x14 + 4 x64 + 4 x114 + 4 x164 + 4 x214 - 11 x264 <= 0
 c65:  4 x15 + 4 x65 + 4 x115 + 4 x165 + 4 x215 - 10 x265 <= 0
 c66:  4 x16 + 4 x66 + 4 x116 + 4 x166 + 4 x216 - 11 x266 <= 0
 c67:  4 x17 + 4 x67 + 4 x117 + 4 x167 + 4 x217 - 11 x267 <= 0
 c68:  4 x18 + 4 x68 + 4 x118 + 4 x168 + 4 x218 - 9 x268 <= 0
 c69:  4 x19 + 4 x69 + 4 x119 + 4 x169 + 4 x219 - 10 x269 <= 0
 c70:  4 x20 + 4 x70 + 4 x120 + 4 x170 + 4 x220 - 9 x270 <= 0
 c71:  4 x21 + 4 x71 + 4 x121 + 4 x171 + 4 x221 - 9 x271 <= 0
 c72:  4 x22 + 4 x72 + 4 x122 + 4 x172 + 4 x222 - 10 x272 <= 0
 c73:  4 x23 + 4 x73 + 4 x123 + 4 x173 + 4 x223 - 10 x273 <= 0
 c74:  4 x24 + 4 x74 + 4 x124 + 4 x174 + 4 x224 - 10 x274 <= 0
 c75:  4 x25 + 4 x75 + 4 x125 + 4 x175 + 4 x225 - 11 x275 <= 0
 c76:  4 x26 + 4 x76 + 4 x126 + 4 x176 + 4 x226 - 11 x276 <= 0
 c77:  4 x27 + 4 x77 + 4 x127 + 4 x177 + 4 x227 - 9 x277 <= 0
 c78:  4 x28 + 4 x78 + 4 x128 + 4 x178 + 4 x228 - 10 x278 <= 0
 c79:  4 x29 + 4 x79 + 4 x129 + 4 x179 + 4 x229 - 10 x279 <= 0
 c80:  4 x30 + 4 x80 + 4 x130 + 4 x180 + 4 x230 - 11 x280 <= 0
 c81:  4 x31 + 4 x81 + 4 x131 + 4 x181 + 4 x231 - 11 x281 <= 0
 c82:  4 x32 + 4 x82 + 4 x132 + 4 x182 + 4 x232 - 11 x282 <= 0
 c83:  4 x33 + 4 x83 + 4 x133 + 4 x183 + 4 x233 - 11 x283 <= 0
 c84:  4 x34 + 4 x84 + 4 x134 + 4 x184 + 4 x234 - 10 x284 <= 0
 c85:  4 x35 + 4 x85 + 4 x135 + 4 x185 + 4 x235 - 11 x285 <= 0
 c86:  4 x36 + 4 x86 + 4 x136 + 4 x186 + 4 x236 - 9 x286 <= 0
 c87:  4 x37 + 4 x87 + 4 x137 + 4 x187 + 4 x237 - 11 x287 <= 0
 c88:  4 x38 + 4 x88 + 4 x138 + 4 x188 + 4 x238 - 10 x288 <= 0
 c89:  4 x39 + 4 x89 + 4 x139 + 4 x189 + 4 x239 - 11 x289 <= 0
 c90:  4 x40 + 4 x90 + 4 x140 + 4 x190 + 4 x240 - 9 x290 <= 0
 c91:  4 x41 + 4 x91 + 4 x141 + 4 x191 + 4 x241 - 10 x291 <= 0
 c92:  4 x42 + 4 x92 + 4 x142 + 4 x192 + 4 x242 - 9 x292 <= 0
 c93:  4 x43 + 4 x93 + 4 x143 + 4 x193 + 4 x243 - 10 x293 <= 0
 c94:  4 x44 + 4 x94 + 4 x144 + 4 x194 + 4 x244 - 11 x294 <= 0
 c95:  4 x45 + 4 x95 + 4 x145 + 4 x195 + 4 x245 - 11 x295 <= 0
 c96:  4 x46 + 4 x96 + 4 x146 + 4 x196 + 4 x246 - 10 x296 <= 0
 c97:  4 x47 + 4 x97 + 4 x147 + 4 x197 + 4 x247 - 11 x297 <= 0
 c98:  4 x48 + 4 x98 + 4 x148 + 4 x198 + 4 x248 - 10 x298 <= 0
 c99:  4 x49 + 4 x99 + 4 x149 + 4 x199 + 4 x249 - 10 x299 <= 0
 c100: 4 x50 + 4 x100 + 4 x150 + 4 x200 + 4 x250 - 4 x300 <= 0
Bounds
 0 <= x1 <= 1
 0 <= x2 <= 1
 0 <= x3 <= 1
 0 <= x4 <= 1
 0 <= x5 <= 1
 0 <= x6 <= 1
 0 <= x7 <= 1
 0 <= x8 <= 1
 0 <= x9 <= 1
 0 <= x10 <= 1
 0 <= x11 <= 1
 0 <= x12 <= 1
 0 <= x13 <= 1
 0 <= x14 <= 1
 0 <= x15 <= 1
 0 <= x16 <= 1
 0 <= x17 <= 1
 0 <= x18 <= 1
 0 <= x19 <= 1
 0 <= x20 <= 1
 0 <= x21 <= 1
 0 <= x22 <= 1
 0 <= x23 <= 1
 0 <= x24 <= 1
 0 <= x25 <= 1
 0 <= x26 <= 1
 0 <= x27 <= 1
 0 <= x28 <= 1
 0 <= x29 <= 1
 0 <= x30 <= 1
 0 <= x31 <= 1
 0 <= x32 <= 1
 0 <= x33 <= 1
 0 <= x34 <= 1
 0 <= x35 <= 1
 0 <= x36 <= 1
 0 <= x37 <= 1
 0 <= x38 <= 1
 0 <= x39 <= 1
 0 <= x40 <= 1
 0 <= x41 <= 1
 0 <= x42 <= 1
 0 <= x43 <= 1
 0 <= x44 <= 1
 0 <= x45 <= 1
 0 <= x46 <= 1
 0 <= x47 <= 1
 0 <= x48 <= 1
 0 <= x49 <= 1
 0 <= x50 <= 1
 0 <= x51 <= 1
 0 <= x52 <= 1
 0 <= x53 <= 1
 0 <= x54 <= 1
 0 <= x55 <= 1
 0 <= x56 <= 1
 0 <= x57 <= 1
 0 <= x58 <= 1
 0 <= x59 <= 1
 0 <= x60 <= 1
 0 <= x61 <= 1
 0 <= x62 <= 1
 0 <= x63 <= 1
 0 <= x64 <= 1
 0 <= x65 <= 1
 0 <= x66 <= 1
 0 <= x67 <= 1
 0 <= x68 <= 1
 0 <= x69 <= 1
 0 <= x70 <= 1
 0 <= x71 <= 1
 0 <= x72 <= 1
 0 <= x73 <= 1
 0 <= x74 <= 1
 0 <= x75 <= 1
 0 <= x76 <= 1
 0 <= x77 <= 1
 0 <= x78 <= 1
 0 <= x79 <= 1
 0 <= x80 <= 1
 0 <= x81 <= 1
 0 <= x82 <= 1
 0 <= x83 <= 1
 0 <= x84 <= 1
 0 <= x85 <= 1
 0 <= x86 <= 1
 0 <= x87 <= 1
 0 <= x88 <= 1
 0 <= x89 <= 1
 0 <= x90 <= 1
 0 <= x91 <= 1
 0 <= x92 <= 1
 0 <= x93 <= 1
 0 <= x94 <= 1
 0 <= x95 <= 1
 0 <= x96 <= 1
 0 <= x97 <= 1
 0 <= x98 <= 1
 0 <= x99 <= 1
 0 <= x100 <= 1
 0 <= x101 <= 1
 0 <= x102 <= 1
 0 <= x103 <= 1
 0 <= x104 <= 1
 0 <= x105 <= 1
 0 <= x106 <= 1
 0 <= x107 <= 1
 0 <= x108 <= 1
 0 <= x109 <= 1
 0 <= x110 <= 1
 0 <= x111 <= 1
 0 <= x112 <= 1
 0 <= x113 <= 1
 0 <= x114 <= 1
 0 <= x115 <= 1
 0 <= x116 <= 1
 0 <= x117 <= 1
 0 <= x118 <= 1
 0 <= x119 <= 1
 0 <= x120 <= 1
 0 <= x121 <= 1
 0 <= x122 <= 1
 0 <= x123 <= 1
 0 <= x124 <= 1
 0 <= x125 <= 1
 0 <= x126 <= 1
 0 <= x127 <= 1
 0 <= x128 <= 1
 0 <= x129 <= 1
 0 <= x130 <= 1
 0 <= x131 <= 1
 0 <= x132 <= 1
 0 <= x133 <= 1
 0 <= x134 <= 1
 0 <= x135 <= 1
 0 <= x136 <= 1
 0 <= x137 <= 1
 0 <= x138 <= 1
 0 <= x139 <= 1
 0 <= x140 <= 1
 0 <= x141 <= 1
 0 <= x142 <= 1
 0 <= x143 <= 1
 0 <= x144 <= 1
 0 <= x145 <= 1
 0 <= x146 <= 1
 0 <= x147 <= 1
 0 <= x148 <= 1
 0 <= x149 <= 1
 0 <= x150 <= 1
 0 <= x151 <= 1
 0 <= x152 <= 1
 0 <= x153 <= 1
 0 <= x154 <= 1
 0 <= x155 <= 1
 0 <= x156 <= 1
 0 <= x157 <= 1
 0 <= x158 <= 1
 0 <= x159 <= 1
 0 <= x160 <= 1
 0 <= x161 <= 1
 0 <= x162 <= 1
 0 <= x163 <= 1
 0 <= x164 <= 1
 0 <= x165 <= 1
 0 <= x166 <= 1
 0 <= x167 <= 1
 0 <= x168 <= 1
 0 <= x169 <= 1
 0 <= x170 <= 1
 0 <= x171 <= 1
 0 <= x172 <= 1
 0 <= x173 <= 1
 0 <= x174 <= 1
 0 <= x175 <= 1
 0 <= x176 <= 1
 0 <= x177 <= 1
 0 <= x178 <= 1
 0 <= x179 <= 1
 0 <= x180 <= 1
 0 <= x181 <= 1
 0 <= x182 <= 1
 0 <= x183 <= 1
 0 <= x184 <= 1
 0 <= x185 <= 1
 0 <= x186 <= 1
 0 <= x187 <= 1
 0 <= x188 <= 1
 0 <= x189 <= 1
 0 <= x190 <= 1
 0 <= x191 <= 1
 0 <= x192 <= 1
 0 <= x193 <= 1
 0 <= x194 <= 1
 0 <= x195 <= 1
 0 <= x196 <= 1
 0 <= x197 <= 1
 0 <= x198 <= 1
 0 <= x199 <= 1
 0 <= x200 <= 1
 0 <= x201 <= 1
 0 <= x202 <= 1
 0 <= x203 <= 1
 0 <= x204 <= 1
 0 <= x205 <= 1
 0 <= x206 <= 1
 0 <= x207 <= 1
 0 <= x208 <= 1
 0 <= x209 <= 1
 0 <= x210 <= 1
 0 <= x211 <= 1
 0 <= x212 <= 1
 0 <= x213 <= 1
 0 <= x214 <= 1
 0 <= x215 <= 1
 0 <= x216 <= 1
 0 <= x217 <= 1
 0 <= x218 <= 1
 0 <= x219 <= 1
 0 <= x220 <= 1
 0 <= x221 <= 1
 0 <= x222 <= 1
 0 <= x223 <= 1
 0 <= x224 <= 1
 0 <= x225 <= 1
 0 <= x226 <= 1
 0 <= x227 <= 1
 0 <= x228 <= 1
 0 <= x229 <= 1
 0 <= x230 <= 1
 0 <= x231 <= 1
 0 <= x232 <= 1
 0 <= x233 <= 1
 0 <= x234 <= 1
 0 <= x235 <= 1
 0 <= x236 <= 1
 0 <= x237 <= 1
 0 <= x238 <= 1
 0 <= x239 <= 1
 0 <= x240 <= 1
 0 <= x241 <= 1
 0 <= x242 <= 1
 0 <= x243 <= 1
 0 <= x244 <= 1
 0 <= x245 <= 1
 0 <= x246 <= 1
 0 <= x247 <= 1
 0 <= x248 <= 1
 0 <= x249 <= 1
 0 <= x250 <= 1
 0 <= x251 <= 1
 0 <= x252 <= 1
 0 <= x253 <= 1
 0 <= x254 <= 1
 0 <= x255 <= 1
 0 <= x256 <= 1
 0 <= x257 <= 1
 0 <= x258 <= 1
 0 <= x259 <= 1
 0 <= x260 <= 1
 0 <= x261 <= 1
 0 <= x262 <= 1
 0 <= x263 <= 1
 0 <= x264 <= 1
 0 <= x265 <= 1
 0 <= x266 <= 1
 0 <= x267 <= 1
 0 <= x268 <= 1
 0 <= x269 <= 1
 0 <= x270 <= 1
 0 <= x271 <= 1
 0 <= x272 <= 1
 0 <= x273 <= 1
 0 <= x274 <= 1
 0 <= x275 <= 1
 0 <= x276 <= 1
 0 <= x277 <= 1
 0 <= x278 <= 1
 0 <= x279 <= 1
 0 <= x280 <= 1
 0 <= x281 <= 1
 0 <= x282 <= 1
 0 <= x283 <= 1
 0 <= x284 <= 1
 0 <= x285 <= 1
 0 <= x286 <= 1
 0 <= x287 <= 1
 0 <= x288 <= 1
 0 <= x289 <= 1
 0 <= x290 <= 1
 0 <= x291 <= 1
 0 <= x292 <= 1
 0 <= x293 <= 1
 0 <= x294 <= 1
 0 <= x295 <= 1
 0 <= x296 <= 1
 0 <= x297 <= 1
 0 <= x298 <= 1
 0 <= x299 <= 1
 0 <= x300 <= 1
Binaries
 x251  x252  x253  x254  x255  x256  x257  x258  x259  x260  x261  x262  x263 
 x264  x265  x266  x267  x268  x269  x270  x271  x272  x273  x274  x275  x276 
 x277  x278  x279  x280  x281  x282  x283  x284  x285  x286  x287  x288  x289 
 x290  x291  x292  x293  x294  x295  x296  x297  x298  x299  x300 
End
